
  32    4
  10   10   10   10

   0   0   0   0   0  17 2 3 4 5 6 8 9 10 11 12 13 14 15 28 29 30 31 
  10   1   1   0   1   5 27 24 17 16 7 
   7   0   2   1   3   4 23 21 18 16 
   2   0   2   6   4   4 24 22 20 17 
   1   3   1   0   5   3 26 23 16 
   8   0   5   7   5   2 19 18 
   6   3   5   5   0   1 20 
   8   1   5   2   0   1 22 
   8   3   0   2   3   1 19 
   4   0   6   5   5   1 19 
   7   4   7   2   0   1 21 
   6   5   4   3   0   1 18 
   1   0   3   4   5   1 25 
   2   3   1   3   0   1 17 
  10   0   4   6   1   1 16 
   3   0   3   7   3   1 32
   8   3   5   5   0   1 32
   8   4   3   0   2   1 32
   1   0   5   4   5   1 32
   1  10   5   0   9   1 32
  10   2   0   5   2   1 32
   5   7   0   3   4   1 32
   4   2   4   0   4   1 32
   4   0   7   3   4   1 32
   1   0   5   5   8   1 32
   8   5   3   0   3   1 32
   4   7   6   4   0   1 32
   4   3   0   2   1   1 32
   9   1   3   5   0   1 32
   2   7   5   0   6   1 32
   5   6   0   3   5   1 32
   0   0   0   0   0   0 
